(set-info :source |printed by MathSAT|)
(declare-fun call_speed.early () Bool)
(declare-fun call_speed.diff () Int)
(declare-fun early () Bool)
(declare-fun flby () Bool)
(declare-fun call_speed.call_counter.c () Int)
(declare-fun param_second () Bool)
(declare-fun flby2 () Bool)
(declare-fun _OK_ () Bool)
(declare-fun call_speed.call_counter.ite2 () Int)
(declare-fun call_speed.call_counter.flby () Int)
(declare-fun param_beacon () Bool)
(declare-fun call_speed.call_counter.pc () Int)
(declare-fun call_speed.call_counter.ite () Int)
(declare-fun call_speed.late () Bool)
(declare-fun call_speed.ite2 () Int)
(declare-fun call_speed.flby2 () Bool)
(declare-fun late () Bool)
(declare-fun call_speed.incr () Int)
(declare-fun call_speed.ite () Int)
(declare-fun call_speed.flby () Bool)
(define-fun .def_312 () Bool (= call_speed.call_counter.flby 0))
(define-fun .def_310 () Bool (not call_speed.flby2))
(define-fun .def_308 () Bool (not call_speed.flby))
(define-fun .def_307 () Bool (and flby flby2))
(define-fun .def_309 () Bool (and .def_307 .def_308))
(define-fun .def_311 () Bool (and .def_309 .def_310))
(define-fun .def_313 () Bool (and .def_311 .def_312))
(define-fun .def_305 () Bool (= call_speed.call_counter.ite call_speed.call_counter.ite2))
(define-fun .def_303 () Bool (= call_speed.call_counter.pc call_speed.call_counter.flby))
(define-fun .def_300 () Bool (= call_speed.call_counter.c call_speed.call_counter.ite2))
(define-fun .def_297 () Bool (= call_speed.incr call_speed.ite2))
(define-fun .def_295 () Bool (= call_speed.diff call_speed.call_counter.c))
(define-fun .def_291 () Bool (= call_speed.early call_speed.flby))
(define-fun .def_288 () Bool (= call_speed.late call_speed.flby2))
(define-fun .def_283 () Bool (= call_speed.ite call_speed.ite2))
(define-fun .def_278 () Bool (not param_second))
(define-fun .def_279 () Bool (and param_beacon .def_278))
(define-fun .def_284 () Bool (or .def_279 .def_283))
(define-fun .def_280 () Bool (not .def_279))
(define-fun .def_277 () Bool (= call_speed.ite2 1))
(define-fun .def_281 () Bool (or .def_277 .def_280))
(define-fun .def_273 () Bool (= call_speed.ite 0))
(define-fun .def_268 () Bool (not param_beacon))
(define-fun .def_269 () Bool (and param_second .def_268))
(define-fun .def_274 () Bool (or .def_269 .def_273))
(define-fun .def_270 () Bool (not .def_269))
(define-fun .def_267 () Bool (= call_speed.ite (- 1)))
(define-fun .def_271 () Bool (or .def_267 .def_270))
(define-fun .def_260 () Int (* (- 1) call_speed.call_counter.ite))
(define-fun .def_261 () Int (+ .def_260 call_speed.incr))
(define-fun .def_262 () Int (+ call_speed.call_counter.pc .def_261))
(define-fun .def_263 () Bool (= .def_262 0))
(define-fun .def_250 () Bool (<= 1000 call_speed.call_counter.pc))
(define-fun .def_251 () Bool (not .def_250))
(define-fun .def_248 () Bool (or param_beacon param_second))
(define-fun .def_244 () Bool (<= call_speed.call_counter.pc (- 1000)))
(define-fun .def_245 () Bool (not .def_244))
(define-fun .def_249 () Bool (and .def_245 .def_248))
(define-fun .def_252 () Bool (and .def_249 .def_251))
(define-fun .def_254 () Bool (not .def_252))
(define-fun .def_264 () Bool (or .def_254 .def_263))
(define-fun .def_243 () Bool (= call_speed.call_counter.pc call_speed.call_counter.ite))
(define-fun .def_253 () Bool (or .def_243 .def_252))
(define-fun .def_265 () Bool (and .def_253 .def_264))
(define-fun .def_272 () Bool (and .def_265 .def_271))
(define-fun .def_275 () Bool (and .def_272 .def_274))
(define-fun .def_282 () Bool (and .def_275 .def_281))
(define-fun .def_285 () Bool (and .def_282 .def_284))
(define-fun .def_239 () Bool (= early call_speed.early))
(define-fun .def_236 () Bool (= late call_speed.late))
(define-fun .def_228 () Bool (and late early))
(define-fun .def_229 () Bool (not .def_228))
(define-fun .def_231 () Bool (and .def_229 flby))
(define-fun .def_233 () Bool (and .def_231 flby2))
(define-fun .def_234 () Bool (= _OK_ .def_233))
(define-fun .def_237 () Bool (and .def_234 .def_236))
(define-fun .def_240 () Bool (and .def_237 .def_239))
(define-fun .def_286 () Bool (and .def_240 .def_285))
(define-fun .def_289 () Bool (and .def_286 .def_288))
(define-fun .def_292 () Bool (and .def_289 .def_291))
(define-fun .def_296 () Bool (and .def_292 .def_295))
(define-fun .def_298 () Bool (and .def_296 .def_297))
(define-fun .def_301 () Bool (and .def_298 .def_300))
(define-fun .def_304 () Bool (and .def_301 .def_303))
(define-fun .def_306 () Bool (and .def_304 .def_305))
(define-fun .def_314 () Bool (and .def_306 .def_313))
(assert .def_314)
